100 8
801 774
590 967
549 414
489 804
493 665
767 638
459 275
548 548
777 555
241 699
510 935
531 405
527 816
517 537
450 348
238 667
573 497
585 834
763 515
386 208
562 327
525 689
555 537
722 343
171 923
407 160
505 835
536 802
605 536
688 660
245 801
745 794
901 750
614 511
556 355
852 759
909 628
567 691
672 812
593 877
574 266
205 834
788 485
877 726
906 500
557 681
674 657
363 205
259 705
724 287
292 740
578 811
319 768
503 456
271 96
270 723
576 982
305 131
306 667
648 522
757 546
677 670
235 681
450 133
856 603
779 445
461 116
836 843
178 838
368 230
503 594
689 508
809 802
374 67
738 375
696 568
236 769
327 56
397 848
717 471
509 777
753 282
384 573
572 820
595 660
402 942
838 375
738 739
715 296
609 482
664 652
810 244
501 558
589 704
457 784
336 666
591 672
542 785
646 326
361 17
